sat
(:eliminated-applications 2
 :eliminated-vars         1
 :max-memory              18.05
 :memory                  18.05
 :nlsat-propagations      5
 :nlsat-stages            3
 :num-allocs              23076
 :rlimit-count            7872
 :time                    0.00
 :total-time              0.01)
